NAME: st70-24-1
TYPE: TSP
COMMENT: min_cost = 461.16
DIMENSION: 24
EDGE_WEIGHT_TYPE: EUC_2D
NODE_COORD_SECTION
1 54 38
2 58 85
3 5 45
4 37 64
5 40 35
6 30 9
7 9 100
8 79 70
9 93 54
10 81 34
11 8 19
12 30 23
13 48 19
14 20 55
15 95 86
16 64 96
17 73 28
18 68 40
19 55 3
20 42 67
21 10 68
22 79 17
23 69 23
24 75 81
EOF
